computational_data/solutions/ER_n40_p035_s9.sol
Optimal - objective value 8.00000000
      3 r_3                         1                       1
     19 r_19                        1                       1
     29 r_29                        1                       1
     34 r_34                        1                       1
     50 b_10                        1                       1
     52 b_12                        1                       1
     62 b_22                        1                       1
     65 b_25                        1                       1
